myproject/instances/20nodes/rnd43_20.tsp
NAME : rnd43_20.tsp
TYPE : TSP
DIMENSION : 20
EDGE_WEIGHT_TYPE : EUC_2D
NODE_COORD_SECTION
1 196 314
2 928 295
3 138 966
4 704 752
5 727 38
6 195 877
7 212 22
8 452 236
9 732 226
10 3 465
11 461 135
12 125 666
13 428 317
14 345 369
15 596 947
16 149 689
17 551 54
18 256 254
19 239 402
20 326 609
