myproject/instances/20nodes/rnd43_20.opt.tour
NAME : rnd43_20.tsp.tsp.opt.tour
TYPE : TOUR
DIMENSION : 20
TOUR_SECTION
1
19
10
12
16
20
6
3
15
4
2
9
5
17
11
8
13
14
18
7
-1